
Gurobi 7.5.1 (linux64, Python) logging started Fri Feb  9 16:18:44 2018

Academic license - for non-commercial use only

Gurobi 7.5.1 (linux64, Python) logging started Sat Feb 24 17:07:35 2018

Academic license - for non-commercial use only

Gurobi 7.5.1 (linux64, Python) logging started Sat Feb 24 18:30:09 2018

Academic license - for non-commercial use only

Gurobi 7.5.1 (linux64, Python) logging started Sat Feb 24 21:01:43 2018

Academic license - for non-commercial use only

Gurobi 7.5.1 (linux64, Python) logging started Fri Mar  2 13:39:42 2018

Academic license - for non-commercial use only

Gurobi 7.5.1 (linux64, Python) logging started Fri Mar  2 16:14:42 2018

Academic license - for non-commercial use only

Gurobi 7.5.1 (linux64, Python) logging started Fri Mar  2 16:16:26 2018

Academic license - for non-commercial use only

Gurobi 7.5.1 (linux64, Python) logging started Fri Mar  2 17:21:25 2018

Academic license - for non-commercial use only

Gurobi 7.5.1 (linux64, Python) logging started Sun Mar 11 13:09:07 2018

Academic license - for non-commercial use only

Gurobi 7.5.1 (linux64, Python) logging started Tue Mar 13 13:49:36 2018

Academic license - for non-commercial use only

Gurobi 7.5.1 (linux64, Python) logging started Tue Mar 13 13:54:33 2018

Academic license - for non-commercial use only

Gurobi 7.5.1 (linux64, Python) logging started Tue Mar 13 14:24:01 2018

Academic license - for non-commercial use only

Gurobi 7.5.1 (linux64, Python) logging started Tue Mar 13 14:30:14 2018

Academic license - for non-commercial use only

Gurobi 7.5.1 (linux64, Python) logging started Tue Mar 13 14:32:45 2018

Academic license - for non-commercial use only

Gurobi 7.5.1 (linux64, Python) logging started Tue Mar 13 14:37:21 2018

Academic license - for non-commercial use only

Gurobi 7.5.1 (linux64, Python) logging started Tue Mar 13 14:46:39 2018

Academic license - for non-commercial use only

Gurobi 7.5.1 (linux64, Python) logging started Sun Mar 18 14:17:52 2018

Academic license - for non-commercial use only

Gurobi 7.5.1 (linux64, Python) logging started Sun Mar 18 14:24:05 2018

Academic license - for non-commercial use only

Gurobi 7.5.1 (linux64, Python) logging started Sun Mar 18 14:25:42 2018

Academic license - for non-commercial use only

Gurobi 7.5.1 (linux64, Python) logging started Sun Mar 18 14:54:55 2018

Academic license - for non-commercial use only

Gurobi 7.5.1 (linux64, Python) logging started Tue Mar 20 13:22:01 2018

Academic license - for non-commercial use only

Gurobi 7.5.1 (linux64, Python) logging started Tue Mar 20 13:46:39 2018

Academic license - for non-commercial use only

Gurobi 7.5.1 (linux64, Python) logging started Tue Mar 20 13:47:14 2018

Academic license - for non-commercial use only

Gurobi 7.5.1 (linux64, Python) logging started Fri Mar 23 20:29:57 2018

Academic license - for non-commercial use only

Gurobi 7.5.1 (linux64, Python) logging started Fri Mar 23 22:34:28 2018

Academic license - for non-commercial use only

Gurobi 7.5.1 (linux64, Python) logging started Sun Apr  1 21:34:15 2018

Academic license - for non-commercial use only

Gurobi 7.5.1 (linux64, Python) logging started Sun Apr  1 21:54:04 2018

Academic license - for non-commercial use only

Gurobi 7.5.1 (linux64, Python) logging started Sun Apr  1 22:11:05 2018

Academic license - for non-commercial use only

Gurobi 7.5.1 (linux64, Python) logging started Sun Apr  1 22:28:05 2018

Academic license - for non-commercial use only

Gurobi 7.5.1 (linux64, Python) logging started Sun Apr  1 22:36:45 2018

Academic license - for non-commercial use only

Gurobi 7.5.1 (linux64, Python) logging started Sun Apr  1 22:40:01 2018

Academic license - for non-commercial use only

Gurobi 7.5.1 (linux64, Python) logging started Sun Apr  1 22:55:22 2018

Academic license - for non-commercial use only

Gurobi 7.5.1 (linux64, Python) logging started Mon Apr  2 13:30:05 2018

Academic license - for non-commercial use only

Gurobi 7.5.1 (linux64, Python) logging started Mon Apr  2 13:32:07 2018

Academic license - for non-commercial use only

Gurobi 7.5.1 (linux64, Python) logging started Mon Apr  2 22:40:23 2018

Academic license - for non-commercial use only

Gurobi 7.5.1 (linux64, Python) logging started Mon Apr  2 22:45:31 2018

Academic license - for non-commercial use only

Gurobi 7.5.1 (linux64, Python) logging started Mon Apr  2 23:52:56 2018

Academic license - for non-commercial use only

Gurobi 7.5.1 (linux64, Python) logging started Tue Apr  3 00:33:15 2018

Academic license - for non-commercial use only

Gurobi 7.5.1 (linux64, Python) logging started Tue Apr  3 19:10:43 2018

Academic license - for non-commercial use only

Gurobi 7.5.1 (linux64, Python) logging started Tue Apr  3 19:15:08 2018

Academic license - for non-commercial use only

Gurobi 7.5.1 (linux64, Python) logging started Tue Apr  3 22:52:32 2018

Academic license - for non-commercial use only

Gurobi 7.5.1 (linux64, Python) logging started Thu Apr  5 11:45:40 2018

Academic license - for non-commercial use only

Gurobi 7.5.1 (linux64, Python) logging started Thu Apr  5 11:48:01 2018

Academic license - for non-commercial use only

Gurobi 7.5.1 (linux64, Python) logging started Thu Apr  5 11:48:51 2018

Academic license - for non-commercial use only

Gurobi 7.5.1 (linux64, Python) logging started Thu Apr  5 11:51:19 2018

Academic license - for non-commercial use only

Gurobi 7.5.1 (linux64, Python) logging started Thu Apr  5 11:53:38 2018

Academic license - for non-commercial use only

Gurobi 7.5.1 (linux64, Python) logging started Thu Apr  5 13:12:37 2018

Academic license - for non-commercial use only

Gurobi 7.5.1 (linux64, Python) logging started Thu Apr  5 13:35:45 2018

Academic license - for non-commercial use only

Gurobi 7.5.1 (linux64, Python) logging started Thu Apr  5 14:04:45 2018

Academic license - for non-commercial use only

Gurobi 7.5.1 (linux64, Python) logging started Fri Apr  6 22:35:06 2018

Academic license - for non-commercial use only

Gurobi 7.5.1 (linux64, Python) logging started Fri Apr  6 22:36:31 2018

Academic license - for non-commercial use only

Gurobi 7.5.1 (linux64, Python) logging started Fri Apr  6 23:09:03 2018

Academic license - for non-commercial use only

Gurobi 7.5.1 (linux64, Python) logging started Sat Apr  7 18:53:36 2018

Academic license - for non-commercial use only

Gurobi 7.5.1 (linux64, Python) logging started Sat Apr  7 19:05:22 2018

Academic license - for non-commercial use only

Gurobi 7.5.1 (linux64, Python) logging started Sat Apr  7 19:16:41 2018

Academic license - for non-commercial use only

Gurobi 7.5.1 (linux64, Python) logging started Sat Apr  7 19:38:03 2018

Academic license - for non-commercial use only

Gurobi 7.5.1 (linux64, Python) logging started Wed Apr 11 10:13:53 2018

Academic license - for non-commercial use only

Gurobi 7.5.1 (linux64, Python) logging started Wed Apr 11 22:51:45 2018

Academic license - for non-commercial use only

Gurobi 7.5.1 (linux64, Python) logging started Sun Apr 15 13:16:56 2018

Academic license - for non-commercial use only

Gurobi 7.5.1 (linux64, Python) logging started Sun Apr 15 18:10:49 2018

Academic license - for non-commercial use only

Gurobi 7.5.1 (linux64, Python) logging started Sun Apr 15 20:00:39 2018

Academic license - for non-commercial use only

Gurobi 7.5.1 (linux64, Python) logging started Sun Apr 15 22:38:29 2018

Academic license - for non-commercial use only

Gurobi 7.5.1 (linux64, Python) logging started Sun Apr 15 22:52:46 2018

Academic license - for non-commercial use only

Gurobi 7.5.1 (linux64, Python) logging started Mon Apr 16 19:21:57 2018

Academic license - for non-commercial use only

Gurobi 7.5.1 (linux64, Python) logging started Thu Apr 26 14:55:06 2018

Academic license - for non-commercial use only

Gurobi 7.5.1 (linux64, Python) logging started Wed May  2 13:22:56 2018

Academic license - for non-commercial use only

Gurobi 7.5.1 (linux64, Python) logging started Wed May  2 13:51:09 2018

Academic license - for non-commercial use only

Gurobi 7.5.1 (linux64, Python) logging started Wed May  2 13:58:20 2018

Academic license - for non-commercial use only

Gurobi 7.5.1 (linux64, Python) logging started Wed May  2 14:03:23 2018

Academic license - for non-commercial use only

Gurobi 7.5.1 (linux64, Python) logging started Wed May  2 19:17:52 2018

Academic license - for non-commercial use only

Gurobi 7.5.1 (linux64, Python) logging started Thu May  3 14:01:32 2018

Academic license - for non-commercial use only

Gurobi 7.5.1 (linux64, Python) logging started Thu May  3 14:08:51 2018

Academic license - for non-commercial use only

Gurobi 7.5.1 (linux64, Python) logging started Thu May  3 14:55:21 2018

Academic license - for non-commercial use only

Gurobi 7.5.1 (linux64, Python) logging started Thu May  3 19:18:17 2018

Academic license - for non-commercial use only

Gurobi 7.5.1 (linux64, Python) logging started Thu May  3 19:27:27 2018

Academic license - for non-commercial use only

Gurobi 7.5.1 (linux64, Python) logging started Thu May  3 19:28:06 2018

Academic license - for non-commercial use only

Gurobi 7.5.1 (linux64, Python) logging started Sat May  5 11:29:52 2018

Academic license - for non-commercial use only

Gurobi 7.5.1 (linux64, Python) logging started Sat May  5 13:41:07 2018

Academic license - for non-commercial use only

Gurobi 7.5.1 (linux64, Python) logging started Sat May  5 20:45:09 2018

Academic license - for non-commercial use only

Gurobi 7.5.1 (linux64, Python) logging started Sat May  5 23:22:38 2018

Academic license - for non-commercial use only

Gurobi 7.5.1 (linux64, Python) logging started Sun May  6 14:24:59 2018

Academic license - for non-commercial use only

Gurobi 7.5.1 (linux64, Python) logging started Mon May  7 14:51:46 2018

Academic license - for non-commercial use only

Gurobi 7.5.1 (linux64, Python) logging started Mon May  7 14:57:37 2018

Academic license - for non-commercial use only

Gurobi 7.5.1 (linux64, Python) logging started Mon May  7 15:02:21 2018

Academic license - for non-commercial use only

Gurobi 7.5.1 (linux64, Python) logging started Mon May  7 22:26:29 2018

Academic license - for non-commercial use only

Gurobi 7.5.1 (linux64, Python) logging started Mon May  7 23:38:49 2018

Academic license - for non-commercial use only

Gurobi 7.5.1 (linux64, Python) logging started Mon May  7 23:49:38 2018

Academic license - for non-commercial use only

Gurobi 7.5.1 (linux64, Python) logging started Tue May  8 00:00:53 2018

Academic license - for non-commercial use only

Gurobi 7.5.1 (linux64, Python) logging started Tue May  8 00:12:04 2018

Academic license - for non-commercial use only

Gurobi 7.5.1 (linux64, Python) logging started Tue May  8 21:22:11 2018

Academic license - for non-commercial use only

Gurobi 7.5.1 (linux64, Python) logging started Tue May  8 21:56:33 2018

Academic license - for non-commercial use only

Gurobi 7.5.1 (linux64, Python) logging started Tue May  8 23:17:37 2018

Academic license - for non-commercial use only

Gurobi 7.5.1 (linux64, Python) logging started Thu May 10 09:31:48 2018

Academic license - for non-commercial use only

Gurobi 7.5.1 (linux64, Python) logging started Thu May 10 12:55:09 2018

Academic license - for non-commercial use only

Gurobi 7.5.1 (linux64, Python) logging started Thu May 10 13:03:54 2018

Academic license - for non-commercial use only

Gurobi 7.5.1 (linux64, Python) logging started Thu May 10 21:27:03 2018

Academic license - for non-commercial use only

Gurobi 7.5.1 (linux64, Python) logging started Thu May 10 23:09:03 2018

Academic license - for non-commercial use only

Gurobi 7.5.1 (linux64, Python) logging started Thu May 10 23:11:19 2018

Academic license - for non-commercial use only

Gurobi 7.5.1 (linux64, Python) logging started Fri May 11 18:08:41 2018

Academic license - for non-commercial use only

Gurobi 7.5.1 (linux64, Python) logging started Fri May 11 18:22:25 2018

Academic license - for non-commercial use only

Gurobi 7.5.1 (linux64, Python) logging started Fri May 11 22:18:00 2018

Academic license - for non-commercial use only

Gurobi 7.5.1 (linux64, Python) logging started Fri May 11 22:24:53 2018

Academic license - for non-commercial use only

Gurobi 7.5.1 (linux64, Python) logging started Fri May 11 22:25:05 2018

Academic license - for non-commercial use only

Gurobi 7.5.1 (linux64, Python) logging started Sat May 12 10:19:19 2018

Academic license - for non-commercial use only

Gurobi 7.5.1 (linux64, Python) logging started Sat May 12 10:26:40 2018

Academic license - for non-commercial use only

Gurobi 7.5.1 (linux64, Python) logging started Sat May 12 11:21:05 2018

Academic license - for non-commercial use only

Gurobi 7.5.1 (linux64, Python) logging started Sat May 12 12:50:55 2018

Academic license - for non-commercial use only

Gurobi 7.5.1 (linux64, Python) logging started Sat May 12 22:37:04 2018

Academic license - for non-commercial use only

Gurobi 7.5.1 (linux64, Python) logging started Sun May 13 10:40:37 2018

Academic license - for non-commercial use only

Gurobi 7.5.1 (linux64, Python) logging started Sun May 13 10:46:50 2018

Academic license - for non-commercial use only

Gurobi 7.5.1 (linux64, Python) logging started Sun May 13 11:07:04 2018

Academic license - for non-commercial use only

Gurobi 7.5.1 (linux64, Python) logging started Sun May 13 12:17:57 2018

Academic license - for non-commercial use only

Gurobi 7.5.1 (linux64, Python) logging started Sun May 13 12:50:14 2018

Academic license - for non-commercial use only

Gurobi 7.5.1 (linux64, Python) logging started Sun May 13 12:53:28 2018

Academic license - for non-commercial use only

Gurobi 7.5.1 (linux64, Python) logging started Sun May 13 13:03:12 2018

Academic license - for non-commercial use only

Gurobi 7.5.1 (linux64, Python) logging started Sun May 13 13:16:50 2018

Academic license - for non-commercial use only

Gurobi 7.5.1 (linux64, Python) logging started Sun May 13 13:19:31 2018

Academic license - for non-commercial use only

Gurobi 7.5.1 (linux64, Python) logging started Sun May 13 13:33:36 2018

Academic license - for non-commercial use only

Gurobi 7.5.1 (linux64, Python) logging started Sun May 13 14:02:19 2018

Academic license - for non-commercial use only

Gurobi 7.5.1 (linux64, Python) logging started Sun May 13 14:08:43 2018

Academic license - for non-commercial use only

Gurobi 7.5.1 (linux64, Python) logging started Sun May 13 14:16:33 2018

Academic license - for non-commercial use only

Gurobi 7.5.1 (linux64, Python) logging started Sun May 13 15:03:32 2018

Academic license - for non-commercial use only

Gurobi 7.5.1 (linux64, Python) logging started Sun May 13 15:30:02 2018

Academic license - for non-commercial use only

Gurobi 7.5.1 (linux64, Python) logging started Sun May 13 15:34:18 2018

Academic license - for non-commercial use only

Gurobi 7.5.1 (linux64, Python) logging started Sun May 13 19:29:19 2018

Academic license - for non-commercial use only

Gurobi 7.5.1 (linux64, Python) logging started Sun May 13 19:34:55 2018

Academic license - for non-commercial use only

Gurobi 7.5.1 (linux64, Python) logging started Sun May 13 19:50:44 2018

Academic license - for non-commercial use only

Gurobi 7.5.1 (linux64, Python) logging started Sun May 13 19:59:33 2018

Academic license - for non-commercial use only

Gurobi 7.5.1 (linux64, Python) logging started Sun May 13 22:13:59 2018

Academic license - for non-commercial use only

Gurobi 7.5.1 (linux64, Python) logging started Sun May 13 22:36:17 2018

Academic license - for non-commercial use only
